
n_res = 6;
rcap = [101, 94, 107, 99, 1687, 1666];
rtype = [1, 1, 1, 1, 2, 2];
n_tasks = 100;
modes =  [{1, 2, 3}, {4, 5, 6}, {7, 8, 9}, {10, 11, 12}, {13, 14, 15}, {16, 17, 18}, {19, 20, 21}, {22, 23, 24}, {25, 26, 27}, {28, 29, 30}, {31, 32, 33}, {34, 35, 36}, {37, 38, 39}, {40, 41, 42}, {43, 44, 45}, {46, 47, 48}, {49, 50, 51}, {52, 53, 54}, {55, 56, 57}, {58, 59, 60}, {61, 62, 63}, {64, 65, 66}, {67, 68, 69}, {70, 71, 72}, {73, 74, 75}, {76, 77, 78}, {79, 80, 81}, {82, 83, 84}, {85, 86, 87}, {88, 89, 90}, {91, 92, 93}, {94, 95, 96}, {97, 98, 99}, {100, 101, 102}, {103, 104, 105}, {106, 107, 108}, {109, 110, 111}, {112, 113, 114}, {115, 116, 117}, {118, 119, 120}, {121, 122, 123}, {124, 125, 126}, {127, 128, 129}, {130, 131, 132}, {133, 134, 135}, {136, 137, 138}, {139, 140, 141}, {142, 143, 144}, {145, 146, 147}, {148, 149, 150}, {151, 152, 153}, {154, 155, 156}, {157, 158, 159}, {160, 161, 162}, {163, 164, 165}, {166, 167, 168}, {169, 170, 171}, {172, 173, 174}, {175, 176, 177}, {178, 179, 180}, {181, 182, 183}, {184, 185, 186}, {187, 188, 189}, {190, 191, 192}, {193, 194, 195}, {196, 197, 198}, {199, 200, 201}, {202, 203, 204}, {205, 206, 207}, {208, 209, 210}, {211, 212, 213}, {214, 215, 216}, {217, 218, 219}, {220, 221, 222}, {223, 224, 225}, {226, 227, 228}, {229, 230, 231}, {232, 233, 234}, {235, 236, 237}, {238, 239, 240}, {241, 242, 243}, {244, 245, 246}, {247, 248, 249}, {250, 251, 252}, {253, 254, 255}, {256, 257, 258}, {259, 260, 261}, {262, 263, 264}, {265, 266, 267}, {268, 269, 270}, {271, 272, 273}, {274, 275, 276}, {277, 278, 279}, {280, 281, 282}, {283, 284, 285}, {286, 287, 288}, {289, 290, 291}, {292, 293, 294}, {295, 296, 297}, {298, 299, 300}];
succ =  [{32, 29, 25, 20, 14, 12, 9}, {38, 29, 23, 9, 6}, {44, 37, 36, 35, 29, 27, 26, 23, 21, 18, 14}, {38, 35, 33, 30, 24, 21, 18, 12}, {48, 42, 38, 30, 19, 12}, {48, 42, 40, 33, 27, 12}, {40, 39, 38, 37, 36, 31, 28, 27, 26, 22, 21}, {51, 47, 37, 29, 26, 19, 14}, {64, 56, 49, 47, 44, 42, 40, 39, 35, 30, 28, 21, 19}, {51, 46, 38, 37, 36, 34, 33, 29, 27, 26, 18}, {51, 46, 45, 40, 38, 37, 36, 35, 33, 29, 18}, {58, 51, 50, 49, 47, 46, 44, 39, 37, 36, 34, 31, 26}, {64, 56, 49, 47, 45, 44, 36, 33, 24, 21}, {64, 63, 50, 49, 48, 46, 45, 43, 41, 40, 39, 38, 33, 30}, {69, 66, 56, 55, 50, 46, 45, 44, 41, 34, 29}, {87, 69, 61, 56, 49, 48, 46, 41, 40, 39, 29}, {87, 64, 63, 58, 56, 51, 50, 46, 45, 41, 39, 30}, {68, 63, 59, 58, 57, 56, 55, 54, 53, 52, 50, 49, 48, 47, 43, 41}, {77, 59, 58, 54, 46, 45, 33, 31}, {83, 69, 66, 65, 64, 63, 58, 57, 56, 54, 53, 52, 50, 46, 45, 43}, {87, 85, 77, 69, 63, 62, 61, 59, 58, 54, 52, 51, 50, 48, 46, 41}, {85, 84, 77, 73, 68, 65, 64, 63, 58, 50, 47, 33}, {73, 69, 67, 64, 63, 59, 58, 56, 55, 54, 33}, {87, 85, 83, 74, 72, 69, 67, 62, 61, 57, 55, 54, 53, 52, 51, 46}, {77, 73, 68, 66, 64, 58, 56, 55, 54, 52, 50, 41}, {84, 83, 74, 68, 65, 64, 63, 59, 53, 45, 43}, {84, 73, 72, 68, 66, 63, 62, 61, 56, 53, 52, 41}, {87, 85, 84, 73, 63, 62, 59, 58, 52, 50, 41}, {65, 64, 63, 59, 58, 57, 54, 53, 43}, {99, 85, 83, 77, 74, 72, 70, 69, 68, 67, 66, 62, 59, 55, 54}, {85, 84, 73, 72, 69, 67, 63, 61, 52, 41}, {85, 83, 69, 68, 60, 59, 58, 57, 54, 53, 50}, {87, 83, 74, 72, 71, 66, 62, 61, 57, 53, 52}, {87, 85, 83, 82, 78, 73, 72, 68, 61, 59, 53, 52}, {99, 87, 84, 77, 74, 72, 71, 70, 68, 62, 60, 59, 57}, {99, 83, 72, 70, 61, 60, 59, 57, 55, 54}, {98, 86, 85, 83, 82, 81, 69, 67, 63, 60, 53}, {99, 82, 71, 70, 69, 68, 59, 58, 57, 56}, {83, 80, 74, 73, 71, 65, 53, 52}, {86, 80, 74, 72, 60, 55, 53}, {100, 98, 86, 83, 81, 80, 79, 78, 75, 74, 71, 70, 65, 60}, {100, 99, 98, 97, 87, 84, 78, 76, 74, 71, 70, 59}, {99, 85, 82, 80, 77, 73, 72, 67, 62, 60}, {99, 98, 95, 85, 84, 83, 81, 80, 79, 78, 75, 72, 60}, {99, 95, 82, 81, 78, 73, 72, 71, 61, 60}, {100, 98, 97, 96, 94, 84, 82, 78, 76, 75, 71, 70, 68}, {100, 97, 96, 86, 83, 81, 78, 76, 75, 71, 70, 69}, {97, 84, 80, 79, 75, 74, 73, 72, 71, 70}, {98, 86, 81, 80, 72, 70, 62, 60}, {100, 99, 97, 95, 94, 93, 82, 80, 75, 72, 67}, {99, 98, 96, 92, 80, 79, 78, 76, 75, 71, 70}, {99, 86, 81, 79, 70, 60}, {100, 99, 96, 94, 92, 90, 76, 75, 70}, {96, 95, 94, 84, 79, 78, 76, 75, 71}, {98, 97, 95, 81, 75, 71, 65}, {100, 97, 95, 94, 93, 92, 85, 78, 75}, {98, 95, 93, 81, 80, 79, 78, 75}, {100, 98, 96, 94, 93, 78, 76, 75}, {96, 95, 94, 92, 80, 79, 75}, {97, 96, 94, 93, 92, 91, 76}, {97, 96, 94, 92, 90, 88, 75}, {96, 95, 93, 92, 79, 75}, {99, 93, 92, 88, 79, 78}, {95, 92, 78, 75}, {93, 92, 91, 90, 89, 88}, {100, 98, 94, 92, 90}, {89, 88, 78}, {90, 88, 79}, {92, 90, 80}, {95, 93, 91}, {93, 90, 88}, {92, 91, 89}, {98, 96, 88}, {94, 82}, {91, 89}, {89, 88}, {95, 90}, {90}, {89}, {88}, {94}, {92}, {93}, {91}, {88}, {90}, {93}, {}, {}, {}, {}, {}, {}, {}, {}, {}, {}, {}, {}, {}];
n_opt = 300;
dur = [8, 9, 14, 3, 8, 10, 8, 26, 28, 2, 7, 28, 21, 22, 24, 1, 4, 28, 10, 22, 30, 4, 7, 12, 9, 17, 20, 16, 17, 24, 6, 7, 11, 22, 24, 25, 12, 22, 23, 4, 11, 22, 2, 22, 25, 15, 18, 25, 11, 12, 14, 12, 14, 30, 2, 7, 14, 5, 21, 27, 8, 13, 26, 4, 8, 23, 14, 17, 30, 3, 6, 10, 9, 10, 29, 6, 7, 11, 4, 18, 21, 21, 23, 24, 18, 22, 24, 12, 20, 22, 3, 10, 26, 5, 14, 28, 2, 12, 18, 13, 20, 23, 9, 12, 14, 3, 9, 28, 11, 16, 26, 10, 17, 29, 4, 8, 26, 11, 17, 18, 11, 13, 21, 4, 12, 18, 4, 15, 19, 8, 10, 15, 13, 23, 26, 4, 16, 27, 6, 14, 24, 12, 21, 23, 4, 6, 14, 25, 26, 30, 11, 12, 19, 7, 19, 23, 12, 22, 26, 5, 9, 21, 3, 13, 29, 7, 15, 17, 3, 20, 30, 6, 12, 30, 19, 20, 26, 19, 21, 28, 2, 18, 28, 10, 11, 28, 19, 21, 23, 1, 9, 26, 1, 16, 23, 15, 18, 30, 9, 10, 20, 1, 13, 16, 13, 19, 21, 5, 11, 20, 8, 12, 15, 1, 22, 23, 6, 16, 30, 9, 11, 15, 11, 16, 30, 15, 16, 28, 7, 8, 21, 3, 11, 25, 15, 19, 22, 5, 6, 21, 3, 15, 30, 2, 11, 30, 3, 13, 29, 12, 13, 20, 26, 29, 30, 8, 11, 19, 13, 14, 26, 10, 11, 15, 8, 27, 30, 3, 4, 13, 17, 18, 21, 1, 2, 28, 4, 7, 24, 5, 8, 15, 5, 13, 24, 18, 19, 21, 10, 15, 19, 20, 23, 26, 8, 15, 23, 10, 18, 25];
rreq = [|23, 22, 18, 21, 18, 18, 14, 8, 6, 14, 8, 6, 24, 24, 22, 23, 14, 3, 18, 17, 11, 19, 17, 11, 26, 21, 17, 20, 16, 8, 9, 7, 6, 22, 20, 14, 16, 16, 15, 10, 9, 9, 5, 5, 3, 18, 17, 17, 12, 12, 11, 15, 14, 5, 1, 1, 1, 22, 20, 11, 29, 20, 10, 25, 19, 18, 23, 16, 11, 23, 22, 16, 15, 13, 9, 17, 15, 7, 8, 6, 6, 6, 6, 5, 20, 19, 15, 28, 20, 20, 18, 16, 15, 8, 5, 3, 25, 25, 22, 24, 23, 21, 19, 11, 5, 20, 19, 15, 18, 11, 8, 24, 22, 21, 21, 15, 13, 27, 27, 23, 11, 10, 5, 27, 20, 14, 27, 23, 23, 25, 19, 18, 5, 5, 3, 28, 26, 26, 19, 15, 7, 21, 18, 18, 12, 11, 11, 10, 7, 4, 18, 17, 17, 21, 20, 13, 30, 23, 19, 23, 13, 7, 15, 13, 12, 22, 18, 16, 21, 12, 9, 27, 24, 24, 28, 27, 25, 26, 24, 22, 19, 14, 13, 23, 19, 14, 20, 16, 11, 17, 9, 7, 17, 13, 10, 27, 18, 11, 7, 5, 5, 11, 7, 2, 15, 15, 14, 27, 24, 24, 19, 18, 16, 29, 28, 28, 17, 16, 15, 27, 23, 18, 21, 19, 16, 24, 22, 19, 19, 16, 9, 26, 22, 16, 16, 12, 6, 18, 16, 15, 16, 10, 9, 23, 21, 19, 18, 17, 17, 10, 5, 2, 20, 11, 8, 18, 12, 8, 22, 19, 14, 26, 26, 25, 12, 8, 7, 6, 5, 3, 16, 13, 4, 2, 2, 2, 24, 24, 16, 19, 14, 14, 13, 11, 8, 19, 14, 9, 24, 22, 19, 9, 8, 7, 28, 22, 15, 23, 20, 14
 |18, 18, 15, 17, 16, 14, 18, 10, 6, 11, 8, 4, 24, 21, 15, 23, 21, 14, 10, 8, 5, 28, 27, 22, 19, 17, 9, 29, 28, 28, 7, 3, 3, 22, 21, 9, 28, 28, 26, 14, 13, 12, 13, 8, 8, 21, 18, 15, 19, 16, 11, 29, 25, 25, 14, 13, 13, 29, 28, 28, 18, 17, 16, 29, 23, 19, 13, 6, 4, 14, 9, 8, 16, 9, 7, 11, 7, 3, 12, 12, 12, 27, 24, 23, 19, 19, 14, 22, 18, 17, 12, 10, 8, 9, 8, 6, 21, 21, 20, 25, 18, 11, 16, 13, 11, 12, 8, 4, 11, 10, 10, 20, 11, 3, 24, 21, 19, 23, 19, 19, 7, 5, 3, 20, 12, 6, 19, 16, 14, 21, 16, 14, 18, 18, 18, 14, 10, 7, 7, 6, 3, 26, 21, 13, 28, 27, 23, 18, 12, 7, 20, 13, 7, 12, 10, 4, 22, 22, 16, 15, 13, 12, 27, 27, 26, 23, 22, 18, 21, 18, 17, 21, 14, 6, 2, 1, 1, 30, 30, 30, 18, 18, 18, 15, 6, 6, 24, 21, 20, 5, 3, 3, 12, 10, 4, 18, 18, 15, 18, 14, 6, 14, 14, 12, 20, 18, 18, 19, 17, 8, 15, 10, 9, 19, 13, 10, 12, 11, 9, 22, 21, 20, 19, 18, 18, 20, 13, 6, 22, 22, 21, 28, 22, 21, 19, 18, 12, 15, 15, 12, 13, 11, 6, 13, 11, 8, 5, 3, 3, 22, 17, 14, 20, 16, 16, 25, 22, 20, 8, 5, 3, 28, 22, 20, 23, 21, 20, 6, 4, 3, 5, 4, 4, 23, 18, 2, 12, 6, 2, 20, 17, 7, 24, 23, 22, 15, 8, 6, 17, 16, 16, 26, 19, 15, 22, 17, 16, 14, 12, 5
 |6, 5, 4, 28, 27, 25, 18, 7, 4, 12, 11, 5, 23, 15, 8, 26, 21, 10, 18, 12, 8, 28, 28, 28, 8, 7, 6, 10, 5, 2, 30, 30, 30, 11, 6, 5, 22, 17, 14, 17, 8, 2, 21, 20, 13, 19, 12, 6, 8, 5, 5, 26, 17, 14, 27, 26, 25, 2, 2, 2, 23, 22, 22, 15, 12, 11, 8, 8, 2, 27, 20, 14, 23, 21, 21, 26, 14, 8, 27, 22, 18, 13, 11, 10, 20, 16, 6, 8, 7, 6, 28, 21, 15, 18, 16, 15, 25, 16, 7, 12, 8, 7, 22, 18, 6, 21, 18, 13, 23, 16, 4, 7, 4, 3, 29, 27, 27, 23, 15, 6, 25, 25, 24, 13, 12, 12, 28, 25, 24, 29, 27, 23, 11, 7, 5, 22, 13, 4, 22, 17, 14, 24, 21, 20, 14, 13, 12, 13, 11, 9, 18, 12, 6, 20, 19, 18, 24, 24, 24, 19, 17, 9, 24, 23, 21, 26, 13, 10, 26, 25, 24, 26, 25, 24, 7, 5, 5, 15, 15, 14, 15, 13, 13, 25, 22, 22, 23, 20, 19, 2, 1, 1, 19, 18, 17, 10, 9, 9, 16, 11, 5, 21, 15, 8, 13, 12, 8, 27, 24, 23, 29, 14, 10, 14, 13, 13, 7, 5, 3, 20, 12, 11, 4, 4, 3, 3, 2, 2, 10, 10, 7, 20, 14, 7, 25, 24, 23, 15, 14, 12, 24, 22, 21, 24, 19, 12, 22, 20, 14, 23, 20, 20, 15, 8, 7, 16, 13, 3, 22, 17, 15, 26, 26, 23, 14, 13, 10, 15, 13, 13, 26, 25, 24, 29, 21, 13, 24, 21, 14, 28, 25, 22, 16, 15, 14, 17, 15, 14, 22, 20, 17, 5, 4, 4, 17, 16, 16, 21, 18, 8
 |19, 15, 12, 16, 11, 4, 20, 15, 11, 12, 12, 10, 21, 16, 11, 6, 6, 6, 24, 18, 13, 11, 8, 4, 11, 9, 6, 16, 15, 14, 21, 18, 12, 17, 16, 16, 11, 7, 7, 21, 20, 20, 26, 26, 26, 9, 9, 5, 22, 19, 18, 10, 5, 3, 19, 17, 15, 21, 13, 10, 25, 16, 8, 27, 27, 27, 25, 17, 12, 13, 13, 13, 21, 12, 2, 16, 15, 15, 23, 16, 5, 22, 17, 15, 25, 19, 14, 4, 3, 2, 25, 22, 19, 12, 9, 8, 25, 18, 15, 27, 22, 19, 25, 24, 23, 25, 17, 11, 17, 14, 8, 6, 4, 4, 22, 19, 9, 26, 17, 16, 2, 1, 1, 20, 18, 16, 11, 9, 3, 12, 9, 7, 28, 20, 17, 13, 9, 9, 12, 8, 7, 7, 5, 4, 14, 13, 13, 21, 21, 19, 23, 23, 21, 25, 16, 5, 15, 10, 8, 16, 8, 8, 28, 25, 21, 27, 26, 25, 29, 24, 14, 14, 13, 11, 28, 21, 19, 19, 18, 10, 26, 20, 20, 23, 22, 22, 21, 15, 2, 27, 25, 25, 9, 9, 8, 23, 22, 18, 22, 21, 21, 25, 23, 21, 27, 25, 24, 19, 11, 3, 27, 14, 9, 17, 16, 16, 11, 6, 6, 17, 17, 15, 27, 25, 22, 22, 22, 12, 22, 22, 22, 16, 14, 14, 17, 15, 9, 12, 7, 2, 19, 19, 19, 4, 4, 3, 24, 23, 21, 7, 7, 5, 20, 14, 10, 18, 16, 10, 23, 22, 18, 18, 16, 14, 19, 18, 14, 14, 9, 6, 26, 25, 23, 13, 9, 7, 24, 24, 24, 19, 17, 15, 20, 19, 13, 15, 13, 9, 23, 21, 16, 23, 22, 20, 13, 7, 3, 11, 7, 4
 |26, 26, 26, 16, 13, 4, 11, 5, 3, 21, 19, 15, 21, 13, 9, 12, 11, 10, 7, 5, 4, 13, 10, 10, 28, 26, 22, 24, 21, 17, 26, 24, 21, 17, 9, 6, 15, 13, 9, 26, 24, 22, 26, 23, 18, 27, 17, 14, 17, 15, 14, 27, 24, 19, 13, 12, 12, 9, 8, 8, 12, 11, 6, 29, 21, 18, 15, 14, 12, 28, 22, 19, 7, 7, 7, 18, 9, 9, 22, 18, 10, 10, 8, 5, 16, 10, 10, 7, 4, 2, 26, 26, 26, 23, 20, 16, 17, 13, 9, 12, 12, 11, 6, 6, 5, 18, 12, 5, 22, 20, 14, 18, 13, 11, 9, 4, 3, 28, 25, 25, 1, 1, 1, 23, 20, 16, 21, 19, 19, 7, 5, 3, 18, 10, 8, 14, 12, 11, 8, 6, 5, 29, 29, 29, 14, 13, 9, 25, 16, 14, 20, 11, 5, 27, 27, 26, 21, 17, 15, 23, 21, 19, 21, 21, 21, 20, 19, 13, 15, 6, 6, 22, 21, 21, 18, 16, 13, 13, 12, 10, 25, 25, 24, 25, 22, 21, 6, 5, 5, 10, 10, 8, 21, 21, 11, 21, 16, 11, 22, 11, 3, 10, 9, 6, 10, 9, 5, 24, 22, 20, 29, 18, 17, 25, 23, 19, 17, 16, 16, 28, 28, 27, 12, 12, 12, 22, 21, 14, 17, 15, 15, 15, 13, 7, 25, 19, 15, 16, 9, 9, 11, 9, 5, 18, 14, 9, 25, 22, 18, 27, 24, 23, 13, 11, 5, 30, 28, 28, 18, 9, 8, 12, 9, 8, 18, 16, 14, 26, 24, 23, 16, 13, 13, 13, 13, 13, 24, 18, 9, 7, 7, 7, 14, 12, 11, 19, 9, 3, 17, 16, 16, 9, 8, 6, 18, 16, 16, 26, 23, 22
 |3, 2, 2, 24, 20, 17, 29, 20, 14, 11, 7, 7, 22, 16, 11, 17, 10, 5, 29, 25, 21, 11, 8, 2, 23, 23, 18, 24, 19, 19, 16, 11, 6, 14, 12, 10, 21, 20, 13, 11, 7, 6, 20, 17, 16, 25, 19, 19, 20, 18, 17, 26, 18, 4, 13, 6, 4, 9, 8, 1, 21, 20, 19, 21, 18, 14, 5, 4, 3, 25, 15, 10, 26, 23, 18, 14, 11, 5, 8, 5, 1, 20, 13, 8, 15, 10, 9, 17, 16, 10, 28, 28, 28, 12, 7, 4, 19, 14, 5, 16, 13, 4, 16, 8, 7, 18, 12, 11, 30, 28, 26, 16, 16, 12, 18, 18, 10, 19, 19, 19, 22, 22, 22, 16, 16, 6, 2, 2, 1, 18, 16, 13, 11, 9, 9, 17, 12, 8, 27, 22, 20, 18, 18, 10, 20, 13, 9, 16, 14, 12, 22, 10, 9, 15, 9, 6, 15, 14, 10, 21, 20, 18, 23, 23, 23, 22, 15, 9, 8, 8, 2, 6, 4, 3, 7, 3, 1, 8, 3, 3, 24, 20, 17, 29, 15, 8, 21, 18, 18, 17, 14, 13, 14, 11, 11, 21, 21, 21, 23, 23, 16, 17, 16, 16, 16, 11, 6, 21, 20, 18, 9, 7, 6, 7, 6, 5, 23, 23, 23, 17, 14, 8, 23, 22, 22, 22, 16, 5, 11, 11, 11, 26, 25, 22, 20, 15, 15, 26, 17, 4, 28, 15, 10, 20, 15, 14, 22, 15, 13, 15, 10, 7, 18, 16, 15, 25, 22, 20, 24, 16, 14, 17, 10, 2, 14, 13, 13, 26, 17, 11, 24, 15, 12, 6, 4, 2, 20, 19, 17, 17, 16, 6, 15, 13, 11, 24, 10, 10, 28, 26, 22, 21, 19, 9, 20, 13, 7, 28, 23, 20|];